* Problem:    ej-pow2-prescaled
* Class:      LP
* Rows:       1
* Columns:    3
* Non-zeros:  3
* Format:     Free MPS
*
NAME ej-pow2-prescaled
ROWS
 N R0000000
 E R0000001
COLUMNS
 c0 R0000000 1 R0000001 31013
 c1 R0000001 -41014
 c2 R0000001 -51015
RHS
BOUNDS
 LO BND1 c0 1
ENDATA
